<number of tasks>
20

<cycle time>
1000

<order strength>
0,816


<task times>
1 126
2 128
3 260
4 485
5 27
6 87
7 107
8 557
9 108
10 201
11 102
12 236
13 294
14 271
15 22
16 193
17 183
18 446
19 107
20 131

<precedence relations>
1,6
1,7
2,4
2,5
3,6
4,6
4,7
5,6
5,7
6,8
6,9
7,8
7,9
8,10
8,11
8,12
9,12
10,13
11,16
11,17
11,18
12,14
13,14
13,15
14,16
14,17
15,17
15,18
17,19
17,20
18,20

<end>
